50	100	100	100
5	8	1
2	2	7
7	1	3
6	8	3
7	3	4
9	9	2
6	9	5
2	4	8
1	2	9
8	5	8
1	5	6
4	4	2
1	2	6
4	4	3
6	8	1
6	9	1
1	3	3
9	3	7
6	9	7
1	2	2
7	8	2
2	6	7
8	7	7
2	5	5
2	5	1
7	1	9
7	4	1
1	5	9
4	3	5
4	4	3
1	5	6
1	6	6
7	4	9
1	4	9
6	1	3
3	3	4
5	6	5
7	8	3
4	1	8
7	3	3
4	9	7
9	7	7
9	8	2
9	5	7
9	7	5
9	1	5
9	3	5
4	8	4
4	9	9
2	3	1
